
******************************************************************************
This program contains Ipopt, a library for large-scale nonlinear optimization.
 Ipopt is released as open source code under the Eclipse Public License (EPL).
         For more information visit http://projects.coin-or.org/Ipopt
******************************************************************************

This is Ipopt version 3.12.6, running with linear solver ma57.

Number of nonzeros in equality constraint Jacobian...:        0
Number of nonzeros in inequality constraint Jacobian.:        0
Number of nonzeros in Lagrangian Hessian.............:   118824

Total number of variables............................:     3549
                     variables with only lower bounds:        0
                variables with lower and upper bounds:        0
                     variables with only upper bounds:        0
Total number of equality constraints.................:        0
Total number of inequality constraints...............:        0
        inequality constraints with only lower bounds:        0
   inequality constraints with lower and upper bounds:        0
        inequality constraints with only upper bounds:        0

iter    objective    inf_pr   inf_du lg(mu)  ||d||  lg(rg) alpha_du alpha_pr  ls
   0  1.2886259e+00 0.00e+00 8.57e-02  -1.0 0.00e+00    -  0.00e+00 0.00e+00   0
   1  1.0850517e+00 0.00e+00 2.34e-02  -2.5 1.35e-02   0.0 1.00e+00 1.00e+00f  1
   2  1.0382855e+00 0.00e+00 3.75e-03  -3.8 1.15e-02  -0.5 1.00e+00 1.00e+00f  1
   3  1.0102029e+00 0.00e+00 2.53e-03  -3.8 2.23e-02  -1.0 1.00e+00 1.00e+00f  1
   4  9.6464711e-01 0.00e+00 1.56e-03  -3.8 4.12e-02  -1.4 1.00e+00 1.00e+00f  1
   5  9.5161251e-01 0.00e+00 1.34e-03  -3.8 1.35e-02  -1.0 1.00e+00 1.00e+00f  1
   6  9.2442606e-01 0.00e+00 1.01e-03  -5.7 3.03e-02  -1.5 1.00e+00 1.00e+00f  1
   7  8.8893378e-01 0.00e+00 7.83e-04  -5.7 5.17e-02  -2.0 1.00e+00 1.00e+00f  1
   8  8.6972194e-01 0.00e+00 1.24e-03  -5.7 6.26e-02  -2.4 1.00e+00 1.00e+00f  1
   9  8.6688018e-01 0.00e+00 6.26e-04  -5.7 6.26e-02  -2.9 1.00e+00 1.00e+00f  1
iter    objective    inf_pr   inf_du lg(mu)  ||d||  lg(rg) alpha_du alpha_pr  ls
  10  8.6679874e-01 0.00e+00 4.73e-04  -5.7 2.68e-02  -3.4 1.00e+00 1.00e+00f  1
  11  8.6679520e-01 0.00e+00 1.81e-04  -5.7 1.16e-02  -3.9 1.00e+00 1.00e+00f  1
  12  8.6679364e-01 0.00e+00 2.63e-04  -5.7 1.83e-02  -4.3 1.00e+00 1.00e+00f  1
  13  8.6679336e-01 0.00e+00 4.48e-04  -5.7 4.23e-02  -4.8 1.00e+00 1.00e+00f  1
  14  8.6679331e-01 0.00e+00 1.23e-04  -5.7 1.16e-02  -5.3 1.00e+00 1.00e+00f  1
  15  8.6679330e-01 0.00e+00 1.64e-04  -5.7 7.05e-03  -5.8 1.00e+00 1.00e+00f  1
  16  8.6679330e-01 0.00e+00 1.56e-05  -5.7 1.49e-03  -6.3 1.00e+00 1.00e+00f  1
  17  8.6679330e-01 0.00e+00 1.10e-05  -8.6 1.43e-03  -6.7 1.00e+00 1.00e+00f  1
  18  8.6679330e-01 0.00e+00 4.13e-09  -8.6 5.66e-05  -7.2 1.00e+00 1.00e+00f  1

Number of Iterations....: 18

                                   (scaled)                 (unscaled)
Objective...............:   8.6679329573357589e-01    8.6679329573357589e-01
Dual infeasibility......:   4.1275113208515246e-09    4.1275113208515246e-09
Constraint violation....:   0.0000000000000000e+00    0.0000000000000000e+00
Complementarity.........:   0.0000000000000000e+00    0.0000000000000000e+00
Overall NLP error.......:   4.1275113208515246e-09    4.1275113208515246e-09


Number of objective function evaluations             = 19
Number of objective gradient evaluations             = 19
Number of equality constraint evaluations            = 0
Number of inequality constraint evaluations          = 0
Number of equality constraint Jacobian evaluations   = 0
Number of inequality constraint Jacobian evaluations = 0
Number of Lagrangian Hessian evaluations             = 18
Total CPU secs in IPOPT (w/o function evaluations)   =      2.977
Total CPU secs in NLP function evaluations           =      6.840

EXIT: Optimal Solution Found.
Note: The following floating-point exceptions are signalling: IEEE_INVALID_FLAG IEEE_DIVIDE_BY_ZERO

 ** SUBROUTINE CUTEST_csetup: Warning. The problem has no general constraints. 
 ** Other tools may be preferable ** 

************************ CUTEst statistics ************************


 Package used            :  IPOPT
 Problem                 :  JIMACK    
 # variables             =            3549
 # constraints           =               0
 # objective functions   =        0.3900000E+02
 # objective gradients   =        0.2000000E+02
 # objective Hessians    =        0.1900000E+02
 # Hessian-vector prdct  =        0.0000000E+00
 # constraints functions =        0.0000000E+00
 # constraints gradients =        0.0000000E+00
 # constraints Hessians  =        0.0000000E+00
 Exit code               =               0
 Final f                 =   0.8667933E+00
 Set up time             =            0.04 seconds
 Solve time              =           17.52 seconds


******************************************************************

System Time =       8.0920000076 s.
